NAME : KROC99C
TYPE : PDTSP
DIMENSION : 99
EDGE_WEIGHT_TYPE : EUC_2D
NODE_COORD_SECTION
1 1357 1905
2 2650 802
3 1774 107
4 1307 964
5 3806 746
6 2687 1353
7 43 1957
8 3092 1668
9 185 1542
10 834 629
11 40 462
12 1183 1391
13 2048 1628
14 1097 643
15 1838 1732
16 234 1118
17 3314 1881
18 737 1285
19 779 777
20 2312 1949
21 2576 189
22 3078 1541
23 2781 478
24 705 1812
25 3409 1917
26 323 1714
27 1660 1556
28 3729 1188
29 693 1383
30 2361 640
31 2433 1538
32 554 1825
33 913 317
34 3586 1909
35 2636 727
36 1000 457
37 482 1337
38 3704 1082
39 3635 1174
40 1362 1526
41 2049 417
42 3939 640
43 219 898
44 812 351
45 901 1552
46 2513 1572
47 242 584
48 826 1226
49 3278 799
50 86 1065
51 14 454
52 1327 1893
53 2773 1286
54 2469 1838
55 3835 963
56 1031 428
57 3853 1712
58 1868 197
59 1544 863
60 457 1607
61 3174 1064
62 192 1004
63 2318 1925
64 2232 1374
65 396 828
66 2365 1649
67 2499 658
68 1410 307
69 2990 214
70 3646 1018
71 3394 1028
72 1779 90
73 1058 372
74 2933 1459
75 3099 173
76 2178 978
77 138 1610
78 2082 1753
79 2302 1127
80 805 272
81 22 1617
82 3213 1085
83 99 536
84 1533 1780
85 3564 676
86 29 6
87 3808 1375
88 2221 291
89 3499 1885
90 3124 408
91 781 671
92 1027 1041
93 3249 378
94 3297 491
95 213 220
96 721 186
97 3736 1542
98 868 731
99 960 303
PICKUP_AND_DELIVERY_SECTION
1 0 0 0 0 0 0
2 0 0 0 0 6 0
3 0 0 0 0 0 13
4 0 0 0 0 40 0
5 0 0 0 0 0 8
6 0 0 0 0 0 2
7 0 0 0 0 0 12
8 0 0 0 0 5 0
9 0 0 0 0 0 33
10 0 0 0 0 0 60
11 0 0 0 0 25 0
12 0 0 0 0 7 0
13 0 0 0 0 3 0
14 0 0 0 0 0 38
15 0 0 0 0 83 0
16 0 0 0 0 0 31
17 0 0 0 0 68 0
18 0 0 0 0 0 80
19 0 0 0 0 67 0
20 0 0 0 0 84 0
21 0 0 0 0 0 92
22 0 0 0 0 26 0
23 0 0 0 0 43 0
24 0 0 0 0 88 0
25 0 0 0 0 0 11
26 0 0 0 0 0 22
27 0 0 0 0 0 52
28 0 0 0 0 0 81
29 0 0 0 0 59 0
30 0 0 0 0 45 0
31 0 0 0 0 16 0
32 0 0 0 0 73 0
33 0 0 0 0 9 0
34 0 0 0 0 98 0
35 0 0 0 0 0 42
36 0 0 0 0 0 37
37 0 0 0 0 36 0
38 0 0 0 0 14 0
39 0 0 0 0 56 0
40 0 0 0 0 0 4
41 0 0 0 0 0 58
42 0 0 0 0 35 0
43 0 0 0 0 0 23
44 0 0 0 0 64 0
45 0 0 0 0 0 30
46 0 0 0 0 0 62
47 0 0 0 0 48 0
48 0 0 0 0 0 47
49 0 0 0 0 0 97
50 0 0 0 0 0 94
51 0 0 0 0 0 65
52 0 0 0 0 27 0
53 0 0 0 0 0 76
54 0 0 0 0 0 96
55 0 0 0 0 0 77
56 0 0 0 0 0 39
57 0 0 0 0 69 0
58 0 0 0 0 41 0
59 0 0 0 0 0 29
60 0 0 0 0 10 0
61 0 0 0 0 82 0
62 0 0 0 0 46 0
63 0 0 0 0 0 75
64 0 0 0 0 0 44
65 0 0 0 0 51 0
66 0 0 0 0 0 86
67 0 0 0 0 0 19
68 0 0 0 0 0 17
69 0 0 0 0 0 57
70 0 0 0 0 0 87
71 0 0 0 0 85 0
72 0 0 0 0 90 0
73 0 0 0 0 0 32
74 0 0 0 0 99 0
75 0 0 0 0 63 0
76 0 0 0 0 53 0
77 0 0 0 0 55 0
78 0 0 0 0 95 0
79 0 0 0 0 91 0
80 0 0 0 0 18 0
81 0 0 0 0 28 0
82 0 0 0 0 0 61
83 0 0 0 0 0 15
84 0 0 0 0 0 20
85 0 0 0 0 0 71
86 0 0 0 0 66 0
87 0 0 0 0 70 0
88 0 0 0 0 0 24
89 0 0 0 0 93 0
90 0 0 0 0 0 72
91 0 0 0 0 0 79
92 0 0 0 0 21 0
93 0 0 0 0 0 89
94 0 0 0 0 50 0
95 0 0 0 0 0 78
96 0 0 0 0 54 0
97 0 0 0 0 49 0
98 0 0 0 0 0 34
99 0 0 0 0 0 74
DEPOT_SECTION
1 
-1
EOF
